words_hard_train/2972.qaiger
aag 96 16 0 1 80
2
4
8
12
16
20
24
28
36
38
42
46
50
58
62
66
192
6 3 5
10 6 9
14 10 13
18 14 17
22 18 21
26 22 25
30 26 29
32 27 28
34 31 33
40 37 38
44 42 38
48 46 38
52 49 51
54 53 38
56 45 55
60 56 59
64 60 63
68 64 67
70 40 68
72 35 71
74 34 70
76 73 75
78 23 24
80 79 27
82 81 36
84 80 37
86 83 85
88 69 38
90 87 88
92 86 89
94 91 93
96 19 20
98 97 23
100 99 66
102 98 67
104 101 103
106 65 38
108 105 106
110 104 107
112 109 111
114 15 16
116 115 19
118 117 62
120 116 63
122 119 121
124 61 38
126 123 124
128 122 125
130 127 129
132 57 58
134 133 61
136 11 12
138 137 15
140 135 138
142 134 139
144 141 143
146 7 8
148 147 11
150 149 42
152 148 43
154 151 153
156 154 55
158 155 54
160 157 159
162 46 2
164 48 50
166 165 53
168 167 4
170 166 5
172 169 171
174 162 173
176 172 47
178 176 3
180 175 179
182 161 181
184 144 182
186 131 184
188 113 186
190 95 188
192 77 191
i0 1 x2[0]
i1 1 x2[1]
i2 1 x2[2]
i3 1 x2[3]
i4 1 x2[4]
i5 1 x2[5]
i6 1 x2[6]
i7 1 x2[7]
i8 2 y1[6]
i9 2 y1[7]
i10 2 y1[2]
i11 2 y1[0]
i12 2 y1[1]
i13 2 y1[3]
i14 2 y1[4]
i15 2 y1[5]
o0 bv[0]
c
simplified
  >=
    xor
      unary minus
        1 x2
      abs
        2 y1
    abs
      1
