words_hard_train/2972.qaiger.qdimacs
p cnf 96 241
a 1 2 4 6 8 10 12 14 0
e 3 5 7 9 11 13 15 16 17 18 19 20 21 22 23 24 25 26 27 28 29 30 31 32 33 34 35 36 37 38 39 40 41 42 43 44 45 46 47 48 49 50 51 52 53 54 55 56 57 58 59 60 61 62 63 64 65 66 67 68 69 70 71 72 73 74 75 76 77 78 79 80 81 82 83 84 85 86 87 88 89 90 91 92 93 94 95 96 0
1 2 3 0
-1 -3 0
-2 -3 0
-3 4 5 0
3 -5 0
-4 -5 0
-5 6 7 0
5 -7 0
-6 -7 0
-7 8 9 0
7 -9 0
-8 -9 0
-9 10 11 0
9 -11 0
-10 -11 0
-11 12 13 0
11 -13 0
-12 -13 0
-13 14 15 0
13 -15 0
-14 -15 0
13 -14 16 0
-13 -16 0
14 -16 0
15 16 17 0
-15 -17 0
-16 -17 0
18 -19 20 0
-18 -20 0
19 -20 0
-21 -19 22 0
21 -22 0
19 -22 0
-23 -19 24 0
23 -24 0
19 -24 0
24 25 26 0
-24 -26 0
-25 -26 0
26 -19 27 0
-26 -27 0
19 -27 0
22 27 28 0
-22 -28 0
-27 -28 0
-28 29 30 0
28 -30 0
-29 -30 0
-30 31 32 0
30 -32 0
-31 -32 0
-32 33 34 0
32 -34 0
-33 -34 0
-20 -34 35 0
20 -35 0
34 -35 0
17 35 36 0
-17 -36 0
-35 -36 0
-17 -35 37 0
17 -37 0
35 -37 0
36 37 38 0
-36 -38 0
-37 -38 0
11 -12 39 0
-11 -39 0
12 -39 0
39 13 40 0
-39 -40 0
-13 -40 0
40 -18 41 0
-40 -41 0
18 -41 0
-40 18 42 0
40 -42 0
-18 -42 0
41 42 43 0
-41 -43 0
-42 -43 0
34 -19 44 0
-34 -44 0
19 -44 0
43 -44 45 0
-43 -45 0
44 -45 0
-43 44 46 0
43 -46 0
-44 -46 0
45 46 47 0
-45 -47 0
-46 -47 0
9 -10 48 0
-9 -48 0
10 -48 0
48 11 49 0
-48 -49 0
-11 -49 0
49 -33 50 0
-49 -50 0
33 -50 0
-49 33 51 0
49 -51 0
-33 -51 0
50 51 52 0
-50 -52 0
-51 -52 0
32 -19 53 0
-32 -53 0
19 -53 0
52 -53 54 0
-52 -54 0
53 -54 0
-52 53 55 0
52 -55 0
-53 -55 0
54 55 56 0
-54 -56 0
-55 -56 0
7 -8 57 0
-7 -57 0
8 -57 0
57 9 58 0
-57 -58 0
-9 -58 0
58 -31 59 0
-58 -59 0
31 -59 0
-58 31 60 0
58 -60 0
-31 -60 0
59 60 61 0
-59 -61 0
-60 -61 0
30 -19 62 0
-30 -62 0
19 -62 0
61 -62 63 0
-61 -63 0
62 -63 0
-61 62 64 0
61 -64 0
-62 -64 0
63 64 65 0
-63 -65 0
-64 -65 0
28 -29 66 0
-28 -66 0
29 -66 0
66 30 67 0
-66 -67 0
-30 -67 0
5 -6 68 0
-5 -68 0
6 -68 0
68 7 69 0
-68 -69 0
-7 -69 0
67 -69 70 0
-67 -70 0
69 -70 0
-67 69 71 0
67 -71 0
-69 -71 0
70 71 72 0
-70 -72 0
-71 -72 0
3 -4 73 0
-3 -73 0
4 -73 0
73 5 74 0
-73 -74 0
-5 -74 0
74 -21 75 0
-74 -75 0
21 -75 0
-74 21 76 0
74 -76 0
-21 -76 0
75 76 77 0
-75 -77 0
-76 -77 0
-77 27 78 0
77 -78 0
-27 -78 0
77 -27 79 0
-77 -79 0
27 -79 0
78 79 80 0
-78 -80 0
-79 -80 0
-23 -1 81 0
23 -81 0
1 -81 0
-24 -25 82 0
24 -82 0
25 -82 0
82 26 83 0
-82 -83 0
-26 -83 0
83 -2 84 0
-83 -84 0
2 -84 0
-83 2 85 0
83 -85 0
-2 -85 0
84 85 86 0
-84 -86 0
-85 -86 0
-81 86 87 0
81 -87 0
-86 -87 0
-86 23 88 0
86 -88 0
-23 -88 0
-88 1 89 0
88 -89 0
-1 -89 0
87 89 90 0
-87 -90 0
-89 -90 0
80 90 91 0
-80 -91 0
-90 -91 0
-72 -91 92 0
72 -92 0
91 -92 0
65 -92 93 0
-65 -93 0
92 -93 0
56 -93 94 0
-56 -94 0
93 -94 0
47 -94 95 0
-47 -95 0
94 -95 0
38 95 96 0
-38 -96 0
-95 -96 0
96 0
